c description: Perfect Matching Principle on 
c generator: CNFgen (0.9.0)
c copyright: (C) 2012-2020 Massimo Lauria <massimo.lauria@uniroma1.it>
c url: https://massimolauria.net/cnfgen
c
p cnf 120 969
-1 -2 0
-1 -3 0
-1 -4 0
-1 -5 0
-1 -6 0
-1 -7 0
-1 -8 0
-1 -9 0
-1 -10 0
-1 -11 0
-1 -12 0
-2 -3 0
-2 -4 0
-2 -5 0
-2 -6 0
-2 -7 0
-2 -8 0
-2 -9 0
-2 -10 0
-2 -11 0
-2 -12 0
-3 -4 0
-3 -5 0
-3 -6 0
-3 -7 0
-3 -8 0
-3 -9 0
-3 -10 0
-3 -11 0
-3 -12 0
-4 -5 0
-4 -6 0
-4 -7 0
-4 -8 0
-4 -9 0
-4 -10 0
-4 -11 0
-4 -12 0
-5 -6 0
-5 -7 0
-5 -8 0
-5 -9 0
-5 -10 0
-5 -11 0
-5 -12 0
-6 -7 0
-6 -8 0
-6 -9 0
-6 -10 0
-6 -11 0
-6 -12 0
-7 -8 0
-7 -9 0
-7 -10 0
-7 -11 0
-7 -12 0
-8 -9 0
-8 -10 0
-8 -11 0
-8 -12 0
-9 -10 0
-9 -11 0
-9 -12 0
-10 -11 0
-10 -12 0
-11 -12 0
1 2 3 4 5 6 7 8 9 10 11 12 0
-1 -13 0
-1 -14 0
-1 -15 0
-1 -16 0
-1 -17 0
-1 -18 0
-1 -19 0
-1 -20 0
-1 -21 0
-1 -22 0
-13 -14 0
-13 -15 0
-13 -16 0
-13 -17 0
-13 -18 0
-13 -19 0
-13 -20 0
-13 -21 0
-13 -22 0
-14 -15 0
-14 -16 0
-14 -17 0
-14 -18 0
-14 -19 0
-14 -20 0
-14 -21 0
-14 -22 0
-15 -16 0
-15 -17 0
-15 -18 0
-15 -19 0
-15 -20 0
-15 -21 0
-15 -22 0
-16 -17 0
-16 -18 0
-16 -19 0
-16 -20 0
-16 -21 0
-16 -22 0
-17 -18 0
-17 -19 0
-17 -20 0
-17 -21 0
-17 -22 0
-18 -19 0
-18 -20 0
-18 -21 0
-18 -22 0
-19 -20 0
-19 -21 0
-19 -22 0
-20 -21 0
-20 -22 0
-21 -22 0
1 13 14 15 16 17 18 19 20 21 22 0
-23 -24 0
-23 -25 0
-23 -26 0
-23 -27 0
-23 -28 0
-23 -29 0
-23 -30 0
-23 -31 0
-23 -32 0
-23 -33 0
-24 -25 0
-24 -26 0
-24 -27 0
-24 -28 0
-24 -29 0
-24 -30 0
-24 -31 0
-24 -32 0
-24 -33 0
-25 -26 0
-25 -27 0
-25 -28 0
-25 -29 0
-25 -30 0
-25 -31 0
-25 -32 0
-25 -33 0
-26 -27 0
-26 -28 0
-26 -29 0
-26 -30 0
-26 -31 0
-26 -32 0
-26 -33 0
-27 -28 0
-27 -29 0
-27 -30 0
-27 -31 0
-27 -32 0
-27 -33 0
-28 -29 0
-28 -30 0
-28 -31 0
-28 -32 0
-28 -33 0
-29 -30 0
-29 -31 0
-29 -32 0
-29 -33 0
-30 -31 0
-30 -32 0
-30 -33 0
-31 -32 0
-31 -33 0
-32 -33 0
23 24 25 26 27 28 29 30 31 32 33 0
-13 -34 0
-13 -35 0
-13 -36 0
-13 -37 0
-13 -38 0
-34 -35 0
-34 -36 0
-34 -37 0
-34 -38 0
-35 -36 0
-35 -37 0
-35 -38 0
-36 -37 0
-36 -38 0
-37 -38 0
13 34 35 36 37 38 0
-23 -34 0
-23 -39 0
-23 -40 0
-23 -41 0
-23 -42 0
-23 -43 0
-23 -44 0
-23 -45 0
-23 -46 0
-23 -47 0
-23 -48 0
-34 -39 0
-34 -40 0
-34 -41 0
-34 -42 0
-34 -43 0
-34 -44 0
-34 -45 0
-34 -46 0
-34 -47 0
-34 -48 0
-39 -40 0
-39 -41 0
-39 -42 0
-39 -43 0
-39 -44 0
-39 -45 0
-39 -46 0
-39 -47 0
-39 -48 0
-40 -41 0
-40 -42 0
-40 -43 0
-40 -44 0
-40 -45 0
-40 -46 0
-40 -47 0
-40 -48 0
-41 -42 0
-41 -43 0
-41 -44 0
-41 -45 0
-41 -46 0
-41 -47 0
-41 -48 0
-42 -43 0
-42 -44 0
-42 -45 0
-42 -46 0
-42 -47 0
-42 -48 0
-43 -44 0
-43 -45 0
-43 -46 0
-43 -47 0
-43 -48 0
-44 -45 0
-44 -46 0
-44 -47 0
-44 -48 0
-45 -46 0
-45 -47 0
-45 -48 0
-46 -47 0
-46 -48 0
-47 -48 0
23 34 39 40 41 42 43 44 45 46 47 48 0
-2 -24 0
-2 -49 0
-2 -50 0
-2 -51 0
-2 -52 0
-2 -53 0
-24 -49 0
-24 -50 0
-24 -51 0
-24 -52 0
-24 -53 0
-49 -50 0
-49 -51 0
-49 -52 0
-49 -53 0
-50 -51 0
-50 -52 0
-50 -53 0
-51 -52 0
-51 -53 0
-52 -53 0
2 24 49 50 51 52 53 0
-3 -54 0
-3 -55 0
-3 -56 0
-54 -55 0
-54 -56 0
-55 -56 0
3 54 55 56 0
-4 -49 0
-4 -57 0
-4 -58 0
-4 -59 0
-4 -60 0
-4 -61 0
-49 -57 0
-49 -58 0
-49 -59 0
-49 -60 0
-49 -61 0
-57 -58 0
-57 -59 0
-57 -60 0
-57 -61 0
-58 -59 0
-58 -60 0
-58 -61 0
-59 -60 0
-59 -61 0
-60 -61 0
4 49 57 58 59 60 61 0
-14 -62 0
14 62 0
-15 -25 0
-15 -39 0
-15 -63 0
-15 -64 0
-15 -65 0
-15 -66 0
-15 -67 0
-15 -68 0
-15 -69 0
-25 -39 0
-25 -63 0
-25 -64 0
-25 -65 0
-25 -66 0
-25 -67 0
-25 -68 0
-25 -69 0
-39 -63 0
-39 -64 0
-39 -65 0
-39 -66 0
-39 -67 0
-39 -68 0
-39 -69 0
-63 -64 0
-63 -65 0
-63 -66 0
-63 -67 0
-63 -68 0
-63 -69 0
-64 -65 0
-64 -66 0
-64 -67 0
-64 -68 0
-64 -69 0
-65 -66 0
-65 -67 0
-65 -68 0
-65 -69 0
-66 -67 0
-66 -68 0
-66 -69 0
-67 -68 0
-67 -69 0
-68 -69 0
15 25 39 63 64 65 66 67 68 69 0
-5 -40 0
-5 -54 0
-5 -70 0
-5 -71 0
-5 -72 0
-5 -73 0
-5 -74 0
-40 -54 0
-40 -70 0
-40 -71 0
-40 -72 0
-40 -73 0
-40 -74 0
-54 -70 0
-54 -71 0
-54 -72 0
-54 -73 0
-54 -74 0
-70 -71 0
-70 -72 0
-70 -73 0
-70 -74 0
-71 -72 0
-71 -73 0
-71 -74 0
-72 -73 0
-72 -74 0
-73 -74 0
5 40 54 70 71 72 73 74 0
-26 -35 0
-26 -75 0
-26 -76 0
-26 -77 0
-26 -78 0
-35 -75 0
-35 -76 0
-35 -77 0
-35 -78 0
-75 -76 0
-75 -77 0
-75 -78 0
-76 -77 0
-76 -78 0
-77 -78 0
26 35 75 76 77 78 0
-27 -57 0
-27 -63 0
-27 -70 0
-27 -79 0
-27 -80 0
-27 -81 0
-27 -82 0
-57 -63 0
-57 -70 0
-57 -79 0
-57 -80 0
-57 -81 0
-57 -82 0
-63 -70 0
-63 -79 0
-63 -80 0
-63 -81 0
-63 -82 0
-70 -79 0
-70 -80 0
-70 -81 0
-70 -82 0
-79 -80 0
-79 -81 0
-79 -82 0
-80 -81 0
-80 -82 0
-81 -82 0
27 57 63 70 79 80 81 82 0
-6 -64 0
-6 -83 0
-6 -84 0
-6 -85 0
-6 -86 0
-6 -87 0
-64 -83 0
-64 -84 0
-64 -85 0
-64 -86 0
-64 -87 0
-83 -84 0
-83 -85 0
-83 -86 0
-83 -87 0
-84 -85 0
-84 -86 0
-84 -87 0
-85 -86 0
-85 -87 0
-86 -87 0
6 64 83 84 85 86 87 0
-28 -36 0
-28 -41 0
-28 -50 0
-28 -79 0
-28 -88 0
-28 -89 0
-28 -90 0
-28 -91 0
-36 -41 0
-36 -50 0
-36 -79 0
-36 -88 0
-36 -89 0
-36 -90 0
-36 -91 0
-41 -50 0
-41 -79 0
-41 -88 0
-41 -89 0
-41 -90 0
-41 -91 0
-50 -79 0
-50 -88 0
-50 -89 0
-50 -90 0
-50 -91 0
-79 -88 0
-79 -89 0
-79 -90 0
-79 -91 0
-88 -89 0
-88 -90 0
-88 -91 0
-89 -90 0
-89 -91 0
-90 -91 0
28 36 41 50 79 88 89 90 91 0
-7 -16 0
-7 -51 0
-7 -80 0
-7 -83 0
-7 -92 0
-7 -93 0
-16 -51 0
-16 -80 0
-16 -83 0
-16 -92 0
-16 -93 0
-51 -80 0
-51 -83 0
-51 -92 0
-51 -93 0
-80 -83 0
-80 -92 0
-80 -93 0
-83 -92 0
-83 -93 0
-92 -93 0
7 16 51 80 83 92 93 0
-29 -42 0
-29 -84 0
-29 -88 0
-29 -94 0
-29 -95 0
-29 -96 0
-42 -84 0
-42 -88 0
-42 -94 0
-42 -95 0
-42 -96 0
-84 -88 0
-84 -94 0
-84 -95 0
-84 -96 0
-88 -94 0
-88 -95 0
-88 -96 0
-94 -95 0
-94 -96 0
-95 -96 0
29 42 84 88 94 95 96 0
-17 -71 0
-17 -97 0
-17 -98 0
-17 -99 0
-17 -100 0
-71 -97 0
-71 -98 0
-71 -99 0
-71 -100 0
-97 -98 0
-97 -99 0
-97 -100 0
-98 -99 0
-98 -100 0
-99 -100 0
17 71 97 98 99 100 0
-8 -18 0
-8 -65 0
-8 -72 0
-8 -94 0
-18 -65 0
-18 -72 0
-18 -94 0
-65 -72 0
-65 -94 0
-72 -94 0
8 18 65 72 94 0
-9 -43 0
-9 -92 0
-9 -95 0
-9 -97 0
-9 -101 0
-9 -102 0
-9 -103 0
-43 -92 0
-43 -95 0
-43 -97 0
-43 -101 0
-43 -102 0
-43 -103 0
-92 -95 0
-92 -97 0
-92 -101 0
-92 -102 0
-92 -103 0
-95 -97 0
-95 -101 0
-95 -102 0
-95 -103 0
-97 -101 0
-97 -102 0
-97 -103 0
-101 -102 0
-101 -103 0
-102 -103 0
9 43 92 95 97 101 102 103 0
-30 -58 0
-30 -66 0
-30 -104 0
-30 -105 0
-30 -106 0
-58 -66 0
-58 -104 0
-58 -105 0
-58 -106 0
-66 -104 0
-66 -105 0
-66 -106 0
-104 -105 0
-104 -106 0
-105 -106 0
30 58 66 104 105 106 0
-55 -75 0
-55 -81 0
-55 -85 0
-55 -98 0
-55 -107 0
-55 -108 0
-55 -109 0
-55 -110 0
-55 -111 0
-75 -81 0
-75 -85 0
-75 -98 0
-75 -107 0
-75 -108 0
-75 -109 0
-75 -110 0
-75 -111 0
-81 -85 0
-81 -98 0
-81 -107 0
-81 -108 0
-81 -109 0
-81 -110 0
-81 -111 0
-85 -98 0
-85 -107 0
-85 -108 0
-85 -109 0
-85 -110 0
-85 -111 0
-98 -107 0
-98 -108 0
-98 -109 0
-98 -110 0
-98 -111 0
-107 -108 0
-107 -109 0
-107 -110 0
-107 -111 0
-108 -109 0
-108 -110 0
-108 -111 0
-109 -110 0
-109 -111 0
-110 -111 0
55 75 81 85 98 107 108 109 110 111 0
-31 -44 0
-31 -59 0
-31 -89 0
-31 -101 0
-31 -104 0
-31 -107 0
-31 -112 0
-31 -113 0
-31 -114 0
-31 -115 0
-44 -59 0
-44 -89 0
-44 -101 0
-44 -104 0
-44 -107 0
-44 -112 0
-44 -113 0
-44 -114 0
-44 -115 0
-59 -89 0
-59 -101 0
-59 -104 0
-59 -107 0
-59 -112 0
-59 -113 0
-59 -114 0
-59 -115 0
-89 -101 0
-89 -104 0
-89 -107 0
-89 -112 0
-89 -113 0
-89 -114 0
-89 -115 0
-101 -104 0
-101 -107 0
-101 -112 0
-101 -113 0
-101 -114 0
-101 -115 0
-104 -107 0
-104 -112 0
-104 -113 0
-104 -114 0
-104 -115 0
-107 -112 0
-107 -113 0
-107 -114 0
-107 -115 0
-112 -113 0
-112 -114 0
-112 -115 0
-113 -114 0
-113 -115 0
-114 -115 0
31 44 59 89 101 104 107 112 113 114 115 0
-32 -45 0
-32 -86 0
-32 -108 0
-32 -112 0
-32 -116 0
-45 -86 0
-45 -108 0
-45 -112 0
-45 -116 0
-86 -108 0
-86 -112 0
-86 -116 0
-108 -112 0
-108 -116 0
-112 -116 0
32 45 86 108 112 116 0
-10 -33 0
-10 -37 0
-10 -46 0
-10 -67 0
-10 -73 0
-10 -102 0
-10 -109 0
-33 -37 0
-33 -46 0
-33 -67 0
-33 -73 0
-33 -102 0
-33 -109 0
-37 -46 0
-37 -67 0
-37 -73 0
-37 -102 0
-37 -109 0
-46 -67 0
-46 -73 0
-46 -102 0
-46 -109 0
-67 -73 0
-67 -102 0
-67 -109 0
-73 -102 0
-73 -109 0
-102 -109 0
10 33 37 46 67 73 102 109 0
-19 -60 0
-19 -76 0
-19 -90 0
-19 -110 0
-19 -117 0
-60 -76 0
-60 -90 0
-60 -110 0
-60 -117 0
-76 -90 0
-76 -110 0
-76 -117 0
-90 -110 0
-90 -117 0
-110 -117 0
19 60 76 90 110 117 0
-11 -47 0
-11 -52 0
-11 -68 0
-11 -74 0
-11 -91 0
-11 -93 0
-11 -96 0
-11 -105 0
-11 -111 0
-11 -116 0
-11 -117 0
-11 -118 0
-11 -119 0
-47 -52 0
-47 -68 0
-47 -74 0
-47 -91 0
-47 -93 0
-47 -96 0
-47 -105 0
-47 -111 0
-47 -116 0
-47 -117 0
-47 -118 0
-47 -119 0
-52 -68 0
-52 -74 0
-52 -91 0
-52 -93 0
-52 -96 0
-52 -105 0
-52 -111 0
-52 -116 0
-52 -117 0
-52 -118 0
-52 -119 0
-68 -74 0
-68 -91 0
-68 -93 0
-68 -96 0
-68 -105 0
-68 -111 0
-68 -116 0
-68 -117 0
-68 -118 0
-68 -119 0
-74 -91 0
-74 -93 0
-74 -96 0
-74 -105 0
-74 -111 0
-74 -116 0
-74 -117 0
-74 -118 0
-74 -119 0
-91 -93 0
-91 -96 0
-91 -105 0
-91 -111 0
-91 -116 0
-91 -117 0
-91 -118 0
-91 -119 0
-93 -96 0
-93 -105 0
-93 -111 0
-93 -116 0
-93 -117 0
-93 -118 0
-93 -119 0
-96 -105 0
-96 -111 0
-96 -116 0
-96 -117 0
-96 -118 0
-96 -119 0
-105 -111 0
-105 -116 0
-105 -117 0
-105 -118 0
-105 -119 0
-111 -116 0
-111 -117 0
-111 -118 0
-111 -119 0
-116 -117 0
-116 -118 0
-116 -119 0
-117 -118 0
-117 -119 0
-118 -119 0
11 47 52 68 74 91 93 96 105 111 116 117 118 119 0
-12 -20 0
-12 -48 0
-12 -53 0
-12 -82 0
-12 -99 0
-12 -106 0
-12 -113 0
-12 -118 0
-12 -120 0
-20 -48 0
-20 -53 0
-20 -82 0
-20 -99 0
-20 -106 0
-20 -113 0
-20 -118 0
-20 -120 0
-48 -53 0
-48 -82 0
-48 -99 0
-48 -106 0
-48 -113 0
-48 -118 0
-48 -120 0
-53 -82 0
-53 -99 0
-53 -106 0
-53 -113 0
-53 -118 0
-53 -120 0
-82 -99 0
-82 -106 0
-82 -113 0
-82 -118 0
-82 -120 0
-99 -106 0
-99 -113 0
-99 -118 0
-99 -120 0
-106 -113 0
-106 -118 0
-106 -120 0
-113 -118 0
-113 -120 0
-118 -120 0
12 20 48 53 82 99 106 113 118 120 0
-21 -61 0
-21 -69 0
-21 -77 0
-21 -103 0
-21 -114 0
-21 -119 0
-21 -120 0
-61 -69 0
-61 -77 0
-61 -103 0
-61 -114 0
-61 -119 0
-61 -120 0
-69 -77 0
-69 -103 0
-69 -114 0
-69 -119 0
-69 -120 0
-77 -103 0
-77 -114 0
-77 -119 0
-77 -120 0
-103 -114 0
-103 -119 0
-103 -120 0
-114 -119 0
-114 -120 0
-119 -120 0
21 61 69 77 103 114 119 120 0
-22 -38 0
-22 -56 0
-22 -62 0
-22 -78 0
-22 -87 0
-22 -100 0
-22 -115 0
-38 -56 0
-38 -62 0
-38 -78 0
-38 -87 0
-38 -100 0
-38 -115 0
-56 -62 0
-56 -78 0
-56 -87 0
-56 -100 0
-56 -115 0
-62 -78 0
-62 -87 0
-62 -100 0
-62 -115 0
-78 -87 0
-78 -100 0
-78 -115 0
-87 -100 0
-87 -115 0
-100 -115 0
22 38 56 62 78 87 100 115 0